p cnf 219 25
190 -58 201 0
210 166 96 0
193 216 -191 0
84 -63 191 0
-170 -76 122 0
106 68 -191 0
103 59 110 0
130 70 99 0
-160 -68 197 0
-72 -50 -98 0
203 -100 41 0
-79 -65 -185 0
87 53 -24 0
-134 -14 128 0
-46 23 -51 0
130 -61 -125 0
172 -53 17 0
219 86 129 0
-26 -193 -95 0
-159 -210 18 0
-175 -83 -73 0
-199 116 -23 0
-192 -131 54 0
153 133 112 0
212 -177 -110 0
